NAME: cum81971.tsp
TYPE: TSP
COMMENT: User-generated TSP file
DIMENSION: 420
EDGE_WEIGHT_TYPE: EUC_2D
NODE_COORD_SECTION
1 7.0 2.0
2 5.0 9.0
3 1.0 5.0
4 4.0 5.0
5 1.0 10.0
6 10.0 9.0
7 7.0 8.0
8 10.0 2.0
9 3.0 9.0
10 5.0 6.0
11 3.0 3.0
12 3.0 5.0
13 4.0 5.0
14 7.0 2.0
15 10.0 2.0
16 4.0 10.0
17 10.0 9.0
18 4.0 6.0
19 8.0 3.0
20 2.0 5.0
21 8.0 10.0
22 8.0 3.0
23 9.0 9.0
24 3.0 7.0
25 8.0 1.0
26 3.0 5.0
27 3.0 6.0
28 9.0 6.0
29 4.0 9.0
30 2.0 5.0
31 7.0 7.0
32 9.0 1.0
33 9.0 7.0
34 1.0 1.0
35 4.0 5.0
36 6.0 6.0
37 5.0 3.0
38 5.0 3.0
39 6.0 2.0
40 4.0 5.0
41 7.0 2.0
42 4.0 1.0
43 7.0 6.0
44 1.0 7.0
45 6.0 1.0
46 5.0 2.0
47 6.0 5.0
48 3.0 2.0
49 5.0 5.0
50 8.0 6.0
51 4.0 2.0
52 7.0 5.0
53 5.0 5.0
54 1.0 1.0
55 5.0 1.0
56 2.0 8.0
57 9.0 10.0
58 4.0 9.0
59 2.0 3.0
60 5.0 3.0
61 5.0 6.0
62 9.0 6.0
63 8.0 8.0
64 6.0 8.0
65 8.0 1.0
66 7.0 3.0
67 3.0 2.0
68 2.0 8.0
69 1.0 5.0
70 7.0 10.0
71 7.0 6.0
72 3.0 1.0
73 7.0 4.0
74 7.0 6.0
75 10.0 10.0
76 2.0 2.0
77 9.0 7.0
78 9.0 7.0
79 3.0 3.0
80 7.0 7.0
81 10.0 6.0
82 8.0 4.0
83 5.0 7.0
84 7.0 6.0
85 8.0 3.0
86 6.0 9.0
87 4.0 2.0
88 6.0 5.0
89 4.0 1.0
90 8.0 4.0
91 6.0 3.0
92 8.0 7.0
93 4.0 9.0
94 2.0 10.0
95 3.0 6.0
96 5.0 3.0
97 10.0 6.0
98 8.0 2.0
99 7.0 8.0
100 5.0 10.0
101 4.0 7.0
102 1.0 2.0
103 2.0 3.0
104 6.0 7.0
105 3.0 8.0
106 10.0 4.0
107 10.0 5.0
108 2.0 7.0
109 4.0 10.0
110 9.0 2.0
111 9.0 5.0
112 7.0 9.0
113 4.0 5.0
114 4.0 9.0
115 9.0 6.0
116 6.0 9.0
117 3.0 9.0
118 5.0 8.0
119 2.0 1.0
120 2.0 7.0
121 8.0 2.0
122 2.0 7.0
123 1.0 2.0
124 1.0 1.0
125 6.0 4.0
126 2.0 2.0
127 10.0 3.0
128 9.0 9.0
129 8.0 3.0
130 4.0 8.0
131 2.0 2.0
132 5.0 6.0
133 3.0 4.0
134 1.0 1.0
135 2.0 8.0
136 2.0 10.0
137 2.0 5.0
138 3.0 7.0
139 2.0 3.0
140 9.0 7.0
141 9.0 4.0
142 1.0 2.0
143 4.0 3.0
144 3.0 7.0
145 5.0 7.0
146 9.0 5.0
147 5.0 1.0
148 1.0 5.0
149 6.0 10.0
150 7.0 5.0
151 6.0 10.0
152 10.0 4.0
153 8.0 4.0
154 7.0 3.0
155 10.0 7.0
156 10.0 2.0
157 2.0 8.0
158 2.0 2.0
159 8.0 7.0
160 5.0 6.0
161 6.0 4.0
162 10.0 10.0
163 7.0 10.0
164 10.0 7.0
165 2.0 1.0
166 2.0 2.0
167 5.0 1.0
168 3.0 4.0
169 9.0 10.0
170 2.0 6.0
171 4.0 4.0
172 4.0 1.0
173 10.0 10.0
174 2.0 3.0
175 7.0 5.0
176 10.0 4.0
177 8.0 4.0
178 8.0 7.0
179 8.0 4.0
180 4.0 3.0
181 2.0 2.0
182 2.0 4.0
183 8.0 2.0
184 7.0 9.0
185 2.0 5.0
186 3.0 2.0
187 6.0 10.0
188 9.0 9.0
189 5.0 8.0
190 1.0 9.0
191 2.0 10.0
192 5.0 6.0
193 3.0 4.0
194 1.0 10.0
195 6.0 7.0
196 7.0 8.0
197 3.0 5.0
198 9.0 3.0
199 10.0 4.0
200 10.0 8.0
201 3.0 8.0
202 6.0 4.0
203 2.0 1.0
204 4.0 4.0
205 5.0 4.0
206 9.0 9.0
207 5.0 5.0
208 7.0 3.0
209 4.0 1.0
210 10.0 9.0
211 4.0 9.0
212 8.0 8.0
213 3.0 2.0
214 5.0 5.0
215 9.0 8.0
216 2.0 5.0
217 4.0 2.0
218 9.0 5.0
219 5.0 9.0
220 7.0 10.0
221 1.0 7.0
222 6.0 7.0
223 8.0 10.0
224 3.0 4.0
225 4.0 8.0
226 5.0 8.0
227 7.0 2.0
228 5.0 3.0
229 2.0 8.0
230 1.0 8.0
231 6.0 9.0
232 4.0 2.0
233 3.0 3.0
234 6.0 10.0
235 4.0 5.0
236 1.0 3.0
237 9.0 9.0
238 4.0 10.0
239 7.0 4.0
240 9.0 6.0
241 1.0 10.0
242 5.0 8.0
243 3.0 9.0
244 3.0 1.0
245 4.0 2.0
246 2.0 8.0
247 6.0 1.0
248 6.0 1.0
249 6.0 2.0
250 9.0 4.0
251 10.0 9.0
252 3.0 1.0
253 3.0 2.0
254 9.0 1.0
255 5.0 2.0
256 7.0 5.0
257 6.0 5.0
258 9.0 8.0
259 3.0 9.0
260 2.0 9.0
261 9.0 6.0
262 8.0 8.0
263 4.0 8.0
264 9.0 3.0
265 1.0 2.0
266 2.0 5.0
267 9.0 10.0
268 6.0 6.0
269 3.0 2.0
270 5.0 1.0
271 10.0 9.0
272 9.0 7.0
273 10.0 10.0
274 3.0 10.0
275 5.0 10.0
276 10.0 8.0
277 10.0 2.0
278 1.0 4.0
279 2.0 9.0
280 2.0 3.0
281 6.0 3.0
282 2.0 2.0
283 7.0 9.0
284 4.0 2.0
285 4.0 7.0
286 7.0 7.0
287 2.0 9.0
288 6.0 4.0
289 1.0 10.0
290 5.0 9.0
291 10.0 10.0
292 5.0 8.0
293 7.0 7.0
294 6.0 5.0
295 3.0 7.0
296 10.0 3.0
297 1.0 6.0
298 7.0 6.0
299 10.0 2.0
300 7.0 9.0
301 7.0 5.0
302 7.0 5.0
303 1.0 8.0
304 4.0 10.0
305 7.0 4.0
306 7.0 1.0
307 9.0 7.0
308 10.0 7.0
309 8.0 1.0
310 10.0 1.0
311 6.0 10.0
312 6.0 8.0
313 10.0 7.0
314 1.0 9.0
315 6.0 4.0
316 2.0 10.0
317 2.0 5.0
318 7.0 8.0
319 9.0 3.0
320 8.0 6.0
321 8.0 6.0
322 2.0 10.0
323 8.0 9.0
324 8.0 1.0
325 2.0 6.0
326 4.0 7.0
327 3.0 5.0
328 2.0 3.0
329 4.0 8.0
330 10.0 1.0
331 4.0 3.0
332 1.0 8.0
333 4.0 10.0
334 10.0 4.0
335 6.0 2.0
336 3.0 1.0
337 5.0 10.0
338 9.0 7.0
339 10.0 5.0
340 10.0 9.0
341 7.0 8.0
342 5.0 7.0
343 2.0 3.0
344 10.0 6.0
345 8.0 3.0
346 4.0 7.0
347 7.0 7.0
348 6.0 3.0
349 2.0 9.0
350 2.0 9.0
351 7.0 9.0
352 10.0 5.0
353 10.0 4.0
354 9.0 5.0
355 8.0 3.0
356 6.0 4.0
357 10.0 3.0
358 3.0 10.0
359 5.0 7.0
360 10.0 7.0
361 9.0 2.0
362 8.0 2.0
363 5.0 7.0
364 1.0 3.0
365 5.0 3.0
366 3.0 2.0
367 1.0 4.0
368 10.0 4.0
369 4.0 9.0
370 6.0 10.0
371 9.0 5.0
372 7.0 5.0
373 10.0 8.0
374 9.0 10.0
375 10.0 1.0
376 7.0 6.0
377 4.0 9.0
378 4.0 8.0
379 4.0 4.0
380 8.0 7.0
381 8.0 3.0
382 1.0 4.0
383 6.0 3.0
384 4.0 2.0
385 4.0 1.0
386 10.0 1.0
387 7.0 8.0
388 10.0 5.0
389 4.0 6.0
390 9.0 9.0
391 4.0 8.0
392 10.0 9.0
393 3.0 9.0
394 8.0 8.0
395 10.0 8.0
396 10.0 1.0
397 6.0 1.0
398 9.0 3.0
399 4.0 10.0
400 8.0 10.0
401 1.0 3.0
402 2.0 8.0
403 5.0 7.0
404 5.0 3.0
405 4.0 9.0
406 10.0 4.0
407 1.0 6.0
408 7.0 4.0
409 2.0 3.0
410 6.0 2.0
411 10.0 8.0
412 6.0 9.0
413 7.0 8.0
414 1.0 2.0
415 8.0 6.0
416 10.0 1.0
417 8.0 4.0
418 1.0 1.0
419 6.0 4.0
420 10.0 5.0
EOF

